p cnf 7230 17
-1208 -1209 0
-816 1201 0
-454 -644 -1204 0
454 -1205 0
1206 1207 0
824 -1207 0
-824 -1206 0
1204 1205 0
1202 1203 0
818 -1203 0
-818 -1202 0
644 -1205 0
-458 -646 1209 0
1200 -1201 0
-1200 1201 0
646 -1209 0
458 -1209 0
